NAME 
ROWS
 N  OBJ
 G  R0      
 G  R1      
 G  R2      
COLUMNS
    x0        OBJ       1
    x0        R0        1
    x1        OBJ       1
    x1        R1        1
    x2        OBJ       1
    x2        R2        1
RHS
    RHS1      R0        1
    RHS1      R1        1
    RHS1      R2        1
BOUNDS
 UP BND1      x0        1
 UP BND1      x1        1
 UP BND1      x2        1
ENDATA
